StudentsNr = 10;
InstructorsNr = 73;
DaysNr = 2;
SlotsPerDay = 60;
AvailabilitySlotsLenght = 20;
RoomNr = 1;
ProgrammNr = 1;
DegreeNr = 1;
RolesNr = 3;
CoursesNr = 5;
InstructorsProgramm = [{1}, {1}, {1}, {1}, {1}, {1}, {1}, {1}, {1}, {1}, {1}, {1}, {1}, {1}, {1}, {1}, {1}, {1}, {1}, {1}, {1}, {1}, {1}, {1}, {1}, {1}, {1}, {1}, {1}, {1}, {1}, {1}, {1}, {1}, {1}, {1}, {1}, {1}, {1}, {1}, {1}, {1}, {1}, {1}, {1}, {1}, {1}, {1}, {1}, {1}, {1}, {1}, {1}, {1}, {1}, {1}, {1}, {1}, {1}, {1}, {1}, {1}, {1}, {1}, {1}, {1}, {1}, {1}, {1}, {1}, {1}, {1}, {1}];
InstructorRolesPerProgramm = [|{3, 9, 11, 12, 15, 17, 18, 19, 25, 26, 30, 32, 35, 38, 39, 41, 42, 43, 44, 46, 50, 51, 53, 63, 65, 68, 69, 72}, {1, 3, 4, 5, 6, 8, 9, 14, 15, 16, 17, 22, 24, 28, 30, 38, 39, 40, 43, 49, 50, 51, 59, 62, 63, 64, 68, 71, 73}, {5, 6, 14, 19, 33, 36, 37, 42, 44, 45, 51, 52, 53, 61, 62, 63, 64, 66, 72}|];
InstructorsAvailability = [|0, 0, 0, 0, 1, 1, |0, 1, 0, 1, 1, 1, |0, 1, 0, 0, 0, 1, |0, 1, 0, 1, 1, 0, |0, 0, 1, 1, 1, 0, |0, 1, 1, 1, 1, 0, |1, 1, 1, 1, 0, 0, |1, 1, 1, 1, 0, 0, |0, 1, 1, 1, 1, 1, |0, 1, 1, 1, 1, 1, |0, 0, 1, 1, 1, 1, |1, 1, 1, 1, 1, 0, |0, 0, 1, 1, 1, 1, |1, 1, 1, 1, 1, 1, |1, 1, 1, 1, 1, 1, |0, 1, 1, 1, 1, 1, |1, 1, 0, 0, 1, 1, |1, 1, 1, 1, 0, 0, |1, 1, 1, 1, 1, 1, |0, 0, 1, 1, 0, 0, |1, 1, 1, 1, 1, 0, |0, 1, 1, 1, 0, 1, |1, 1, 0, 0, 0, 1, |0, 0, 0, 1, 1, 1, |1, 1, 1, 1, 1, 1, |0, 0, 1, 0, 0, 0, |1, 1, 0, 0, 1, 0, |0, 1, 0, 1, 0, 0, |1, 1, 1, 0, 0, 1, |1, 1, 1, 1, 1, 1, |0, 0, 0, 0, 0, 1, |1, 0, 1, 1, 1, 1, |1, 1, 1, 1, 1, 0, |0, 1, 1, 1, 1, 1, |1, 1, 1, 1, 1, 1, |1, 1, 1, 1, 1, 1, |0, 1, 1, 1, 1, 1, |0, 0, 0, 1, 1, 1, |0, 1, 1, 1, 1, 1, |1, 1, 1, 1, 1, 1, |1, 0, 0, 1, 0, 0, |0, 1, 1, 0, 1, 1, |1, 1, 0, 1, 1, 1, |1, 0, 0, 1, 1, 1, |0, 0, 1, 1, 1, 1, |1, 1, 1, 1, 1, 1, |0, 0, 0, 0, 1, 1, |1, 1, 1, 1, 1, 1, |1, 0, 0, 1, 1, 0, |0, 1, 1, 1, 1, 1, |1, 1, 1, 1, 1, 1, |1, 1, 1, 1, 1, 1, |0, 1, 1, 0, 0, 1, |1, 1, 1, 0, 1, 1, |1, 1, 0, 1, 1, 0, |0, 1, 1, 1, 1, 0, |0, 0, 1, 1, 1, 0, |0, 1, 1, 1, 1, 1, |0, 1, 1, 1, 1, 1, |1, 1, 1, 1, 1, 1, |0, 0, 1, 1, 1, 1, |0, 1, 0, 0, 1, 1, |0, 1, 1, 1, 1, 0, |0, 0, 0, 0, 1, 1, |1, 0, 1, 0, 0, 1, |0, 0, 0, 1, 1, 1, |0, 1, 0, 0, 0, 1, |0, 0, 0, 1, 1, 1, |1, 1, 1, 1, 1, 1, |0, 1, 1, 0, 1, 0, |1, 1, 1, 1, 0, 1, |0, 1, 1, 1, 0, 1, |0, 0, 0, 0, 1, 1|];
StudentsProgramm = [1, 1, 1, 1, 1, 1, 1, 1, 1, 1];
StudentsDegree = [1, 1, 1, 1, 1, 1, 1, 1, 1, 1];
StudentsSupervisorId = [38, 65, 17, 31, 50, 69, 14, 20, 7, 43];
StudentsCourseIds = [{3}, {3}, {3}, {2}, {3}, {4}, {3}, {3}, {3}, {4}];
StudentsAvailability = [|1, 1, 1, 1, 1, 1, |0, 0, 0, 0, 0, 0, |1, 0, 0, 1, 1, 1, |0, 0, 0, 1, 1, 1, |0, 0, 0, 0, 1, 1, |0, 1, 1, 1, 1, 0, |1, 1, 1, 1, 1, 1, |1, 1, 1, 1, 1, 1, |0, 1, 1, 1, 1, 1, |1, 1, 1, 0, 0, 1|];
TheoryticalMinCard = [0, 0, 0, 1, 0, 0, 0, 1, 1, 0];
CoursesInstructorIds = [{3, 4, 9, 10, 11, 13, 16, 30, 35, 42, 48, 49, 50, 51, 58, 59, 62, 63, 66, 70, 73}, {3, 5, 7, 9, 10, 13, 14, 15, 16, 17, 19, 21, 24, 25, 27, 28, 29, 30, 32, 35, 36, 37, 39, 41, 44, 45, 46, 47, 49, 50, 51, 54, 55, 56, 57, 59, 61, 62, 63, 64, 65, 66, 67, 69, 70}, {1, 5, 11, 15, 17, 18, 24, 26, 28, 29, 33, 36, 37, 44, 49, 54, 58, 60, 61, 63, 70, 72}, {3, 4, 5, 6, 9, 10, 11, 13, 15, 17, 19, 20, 23, 24, 25, 28, 29, 30, 31, 34, 36, 38, 42, 44, 45, 47, 49, 51, 55, 57, 59, 60, 64, 66, 67, 69, 70, 71, 72, 73}, {2, 3, 7, 8, 15, 17, 19, 20, 27, 28, 37, 39, 41, 48, 51, 52, 56, 58, 60, 65, 66, 71, 72}];
RolesDemands = [25, 10, 11];
RolesContinuity = [1];
ExamLen = [1, 1, 1, 1, 1, 1, 1, 1, 1, 1];
LunchTsMinLen = 0;
LunchStarts = [21..39, 76..102];
SupervisorAvailable = 5;
OptimalLunchLenght = [0, 1];
OptimalStartTs = [1, 0];
OptimalFinishTs = [2, 60];
MinimizeRooms = 0;
RolesSoftContinuity = [|1, 2, 3|2, 4, 4|];
SameDegreeInRoom = 20;
Mergeability = 2;
